NAME: Tnm151
COMMENT: Imported from tnm log files (not double checked for validity should be 2293265)
TYPE: TOUR
DIMENSION: 151
TOUR_SECTION:
1
123
120
117
114
111
108
105
102
99
96
93
90
87
84
81
78
75
72
69
66
63
60
57
54
51
48
45
42
39
36
33
30
27
24
21
18
15
12
9
6
3
122
119
116
124
113
110
107
104
127
130
133
136
139
142
101
98
95
92
89
86
83
80
77
74
71
68
65
62
59
56
53
50
47
44
41
38
35
32
29
26
23
20
17
132
129
14
11
8
126
5
2
121
118
115
112
109
106
103
100
97
94
91
88
85
82
79
76
73
70
67
64
61
58
55
52
135
138
141
144
147
150
151
148
145
149
146
143
140
137
134
131
49
46
43
40
37
34
31
28
25
22
19
16
13
10
7
128
125
4
-1
EOF
